NAME : rc_206.1
TYPE : TSPTW
DIMENSION : 4
EDGE_WEIGHT_TYPE : EXPLICIT
EDGE_WEIGHT_FORMAT : FULL_MATRIX
EDGE_WEIGHT_SECTION
0 430116 360555 335410 
530116 100000 170711 211803 
460555 170711 100000 150000 
435410 211803 150000 100000 
TIME_WINDOW_SECTION
1 0 9600000
2 430000 2830000
3 360000 2760000
4 330000 2730000
DEPOT_SECTION
1 
-1
EOF
